(declare-fun ExpandObjSwitcher () Real)
(declare-fun Constructed_Argument_t () String)
(declare-fun CreateAsClass () Bool)
(declare-fun Constructed_Argument () Real)
(declare-fun CreateAsClass_2 () Bool)
(assert (= ExpandObjSwitcher 0.0))
(assert (= Constructed_Argument_t "number"))
(assert (not CreateAsClass))
(assert (not (= Constructed_Argument 0.0)))
(assert CreateAsClass_2)
(check-sat)
